%chk=hoh-h20.chk
%mem=10gb
#p B3LYP/6-311++G** scf=(maxcycle=200) output=wfx 

hoh-h20

0 1
8           -3.330443    1.308025    0.006646
1           -3.749668    1.989792   -0.520991
1           -3.628661    1.501815    0.904279
8           -4.168005    1.812827    2.752162
1           -3.463504    2.006053    3.375936
1           -4.674019    1.117988    3.180968

hoh-h20.wfx
