%chk=hoh-h20.chk
%mem=10gb
#p MP2/6-311++G** scf=(maxcycle=200) opt=(maxcycles=100) Freq output=wfx 

hoh-h20

0 1
O     -3.33760    1.31330    0.00310
H     -3.83710    2.06830   -0.34150
H     -3.54010    1.37010    0.96330
O     -4.06910    1.71060    2.62440
H     -3.50830    2.08360    3.32620
H     -4.72210    1.19060    3.12350

hoh-h20.wfx
